NAME: Instances/Distribution/200n_10s_15d_instance.tsp
COMMENT: Ben Desjardins (bdesj038@uottawa.ca)
DIMENSION: 200
SPARCITY: 10
%HOLES: 15.0%
EDGE_WEIGHT_TYPE: EUC_2D


NODE	X_LOC	Y_LOC	DEMAND	BATTERY
DATASTART
0	0	0	0	0
1	-241.00	-148.00	1	48
2	-265.00	-188.00	1	54
3	-137.00	-125.00	1	6
4	-95.00	-107.00	1	17
5	-2.00	-50.00	1	53
6	30.00	-132.00	1	46
7	-375.00	-180.00	1	45
8	-11.00	95.00	1	11
9	36.00	-193.00	1	81
10	.00	-247.00	1	3
11	-81.00	25.00	1	94
12	-146.00	-190.00	1	69
13	-356.00	-200.00	1	31
14	-191.00	30.00	1	83
15	34.00	139.00	1	63
16	-141.00	137.00	1	60
17	-230.00	252.00	1	64
18	-380.00	-123.00	1	42
19	-297.00	-57.00	1	39
20	-274.00	-294.00	1	80
21	54.00	253.00	1	68
22	-212.00	-306.00	1	72
23	-28.00	-201.00	1	85
24	-28.00	-250.00	1	8
25	-131.00	-36.00	1	56
26	-106.00	-350.00	1	15
27	90.00	-355.00	1	82
28	125.00	-490.00	1	98
29	-83.00	214.00	1	26
30	-144.00	23.00	1	29
31	-387.00	-306.00	1	44
32	95.00	-340.00	1	61
33	2.00	-10.00	1	90
34	-115.00	-150.00	1	72
35	12.00	-190.00	1	91
36	-153.00	302.00	1	73
37	106.00	3.00	1	74
38	-76.00	-412.00	1	97
39	-162.00	-26.00	1	89
40	65.00	364.00	1	43
41	-132.00	70.00	1	80
42	-282.00	286.00	1	25
43	-347.00	158.00	1	56
44	-412.00	212.00	1	46
45	106.00	312.00	1	99
46	-146.00	-222.00	1	30
47	135.00	492.00	1	62
48	-475.00	-424.00	1	16
49	-215.00	-465.00	1	52
50	181.00	491.00	1	95
51	280.00	483.00	1	33
52	220.00	-299.00	1	81
53	-175.00	133.00	1	56
54	-360.00	-306.00	1	36
55	-64.00	64.00	1	28
56	263.00	-410.00	1	42
57	-362.00	-122.00	1	92
58	179.00	401.00	1	71
59	194.00	222.00	1	20
60	-433.00	165.00	1	26
61	-56.00	-400.00	1	76
62	270.00	156.00	1	91
63	-270.00	-497.00	1	88
64	-297.00	-463.00	1	68
65	266.00	474.00	1	39
66	.00	-216.00	1	39
67	130.00	301.00	1	4
68	70.00	250.00	1	3
69	376.00	-354.00	1	39
70	-482.00	-21.00	1	30
71	-58.00	-202.00	1	79
72	-348.00	-310.00	1	67
73	-2.00	-185.00	1	33
74	78.00	-260.00	1	65
75	-175.00	-275.00	1	93
76	-346.00	-253.00	1	83
77	233.00	-377.00	1	73
78	34.00	195.00	1	67
79	-128.00	255.00	1	48
80	-483.00	54.00	1	75
81	-203.00	-268.00	1	3
82	-223.00	-84.00	1	23
83	-164.00	229.00	1	38
84	346.00	135.00	1	83
85	104.00	262.00	1	54
86	85.00	209.00	1	91
87	-69.00	-194.00	1	55
88	70.00	-389.00	1	95
89	-296.00	19.00	1	82
90	91.00	143.00	1	6
91	275.00	442.00	1	3
92	.00	-397.00	1	78
93	46.00	-368.00	1	3
94	404.00	216.00	1	60
95	-426.00	18.00	1	28
96	-33.00	321.00	1	82
97	191.00	491.00	1	40
98	-189.00	-313.00	1	74
99	-237.00	-364.00	1	33
100	-87.00	137.00	1	53
101	-75.00	331.00	1	4
102	392.00	240.00	1	66
103	157.00	152.00	1	93
104	121.00	78.00	1	2
105	-244.00	166.00	1	5
106	303.00	323.00	1	11
107	-110.00	-443.00	1	41
108	-112.00	-225.00	1	98
109	16.00	-187.00	1	7
110	206.00	-207.00	1	60
111	-81.00	104.00	1	48
112	-119.00	45.00	1	42
113	147.00	-47.00	1	9
114	-338.00	364.00	1	97
115	-260.00	-319.00	1	3
116	-398.00	85.00	1	37
117	-386.00	272.00	1	71
118	-321.00	152.00	1	59
119	219.00	130.00	1	40
120	-269.00	436.00	1	23
121	-365.00	-43.00	1	59
122	371.00	172.00	1	28
123	375.00	154.00	1	35
124	-207.00	-480.00	1	55
125	-143.00	344.00	1	60
126	74.00	-317.00	1	66
127	-177.00	210.00	1	78
128	-215.00	-229.00	1	22
129	-235.00	-390.00	1	41
130	-153.00	437.00	1	36
131	167.00	436.00	1	85
132	107.00	337.00	1	48
133	-194.00	-397.00	1	24
134	-335.00	-61.00	1	75
135	112.00	-43.00	1	95
136	-7.00	-88.00	1	27
137	469.00	-282.00	1	3
138	328.00	464.00	1	76
139	-451.00	-201.00	1	86
140	-16.00	-322.00	1	14
141	113.00	380.00	1	92
142	13.00	313.00	1	53
143	-294.00	125.00	1	21
144	-193.00	393.00	1	63
145	215.00	276.00	1	70
146	401.00	-464.00	1	2
147	438.00	-387.00	1	22
148	50.00	-18.00	1	59
149	264.00	-65.00	1	78
150	-365.00	-496.00	1	15
151	327.00	134.00	1	56
152	-37.00	205.00	1	71
153	155.00	-349.00	1	79
154	-415.00	-58.00	1	50
155	-116.00	241.00	1	25
156	417.00	-265.00	1	100
157	45.00	-259.00	1	86
158	333.00	102.00	1	23
159	-379.00	497.00	1	32
160	289.00	416.00	1	30
161	-172.00	-81.00	1	60
162	-124.00	309.00	1	82
163	-405.00	144.00	1	99
164	53.00	-203.00	1	66
165	188.00	-142.00	1	41
166	241.00	204.00	1	93
167	-18.00	377.00	1	20
168	-156.00	242.00	1	56
169	-63.00	-282.00	1	88
170	-220.00	-473.00	1	67
EODATA
NODE	X_LOC	Y_LOC	DEMAND	DEGREE
HOLESTART
0	-188.87	291.96	-1	2.00
1	-104.02	405.10	-1	2.00
2	489.95	235.39	-1	1.69
3	376.81	263.68	-1	2.00
4	-415.15	207.11	-1	2.00
5	-471.72	-188.87	-1	2.26
6	150.54	-160.59	-1	2.00
7	-386.86	65.69	-1	2.00
8	122.25	-188.87	-1	2.00
9	-386.86	320.24	-1	2.00
10	-358.58	9.12	-1	2.00
11	-386.86	178.82	-1	2.00
12	320.24	-273.73	-1	2.00
13	207.11	-358.58	-1	2.00
14	-75.74	-330.29	-1	2.00
15	178.82	376.81	-1	2.00
16	235.39	348.53	-1	2.00
17	433.38	-443.43	-1	3.91
18	37.40	489.95	-1	1.69
19	65.69	489.95	-1	1.69
20	-273.73	320.24	-1	2.00
21	207.11	207.11	-1	2.00
22	178.82	-273.73	-1	2.00
23	9.12	-330.29	-1	2.00
24	320.24	348.53	-1	2.00
25	-188.87	93.97	-1	2.00
26	489.95	-443.43	-1	2.25
27	65.69	122.25	-1	2.00
28	433.38	376.81	-1	2.20
29	-132.30	235.39	-1	2.00
EOHOLE
EOF
